Linux optc-01-06 4.15.0-58-generic #64-Ubuntu SMP Tue Aug 6 11:12:41 UTC 2019 x86_64 x86_64 x86_64 GNU/Linux

top - 20:30:25 up 1 day, 10:31,  0 users,  load average: 0,92, 0,98, 0,99
Tasks: 290 gesamt,   1 laufend, 149 schlafend,   0 gestoppt,   0 Zombie
%CPU(s):  7,1 be,  0,4 sy,  0,0 ni, 92,5 un,  0,0 wa,  0,0 hi,  0,0 si,  0,0 st
KiB Spch : 97514992 gesamt, 95510432 frei,   650204 belegt,  1354356 Puff/Cache
KiB Swap:  8388604 gesamt,  8388604 frei,        0 belegt. 96123792 verfü Spch 

  PID USER      PR  NI    VIRT    RES    SHR S  %CPU %MEM     ZEIT+ BEFEHL
    1 root      20   0  233836   9424   6732 S   0,0  0,0   0:11.65 systemd
    2 root      20   0       0      0      0 S   0,0  0,0   0:00.12 kthreadd
    3 root      20   0       0      0      0 I   0,0  0,0   0:00.00 kworker/0:0
    4 root       0 -20       0      0      0 I   0,0  0,0   0:00.00 kworker/0:+
    6 root      20   0       0      0      0 I   0,0  0,0   0:00.00 kworker/u3+
    7 root       0 -20       0      0      0 I   0,0  0,0   0:00.00 mm_percpu_+
    8 root      20   0       0      0      0 S   0,0  0,0   0:00.00 ksoftirqd/0
    9 root      20   0       0      0      0 I   0,0  0,0   0:13.48 rcu_sched

hard time limit: 04:10:00
hard mem limit: 55100

SLURM jobID: 2182500

@01 /nfs/optimi/kombadon/IP/coral/d20200.mps.gz ===========
-----------------------------
Do 22. Aug 20:30:25 CEST 2019
-----------------------------
@03 1566498625
@05 7200
SCIP version 6.0.0 [precision: 8 byte] [memory: block] [mode: optimized] [LP solver: CPLEX 12.8.0.0] [GitHash: 41ab6e0014]
Copyright (C) 2002-2018 Konrad-Zuse-Zentrum fuer Informationstechnik Berlin (ZIB)

External codes: 
  Readline 7.0         GNU library for command line editing (gnu.org/s/readline)
  CPLEX 12.8.0.0       Linear Programming Solver developed by IBM (www.cplex.com)
  CppAD 20180000.0     Algorithmic Differentiation of C++ algorithms developed by B. Bell (www.coin-or.org/CppAD)
  ZLIB 1.2.11          General purpose compression library by J. Gailly and M. Adler (zlib.net)
  GMP 6.1.2            GNU Multiple Precision Arithmetic Library developed by T. Granlund (gmplib.org)
  bliss 0.73p          Computing Graph Automorphism Groups by T. Junttila and P. Kaski (http://www.tcs.hut.fi/Software/bliss/)

user parameter file <scip.set> not found - using default parameters

SCIP> 
SCIP> set load /home/optimi/bzfhende/opti/scip-opti/check/../settings/enable_treeeprofile.set
loaded parameter file </home/optimi/bzfhende/opti/scip-opti/check/../settings/enable_treeprofile.set>
SCIP> set misc referencevalue 12292
misc/referencevalue = 12292
SCIP> set limits time 7200
limits/time = 7200
SCIP> set limits nodes 2100000000
limits/nodes = 2100000000
SCIP> set limits memory 50000
limits/memory = 50000
SCIP> set lp advanced threads 1
lp/threads = 1
SCIP> set timing clocktype 1
timing/clocktype = 1
SCIP> set display freq 10000
display/freq = 10000
SCIP> set memory savefac 1.0
memory/savefac = 1
SCIP> set save /home/optimi/bzfhende/opti/scip-opti/check/treesize.estimation.jouurnal.3/bzfhende.MMMc.36_d20200.scip.M640.enable_treeprofile.set
saved parameter file </home/optimi/bzfhende/opti/scip-opti/check/treesize.estimation.journal.3/bzfhende.MMMc.36_d20200.scip.M640.enable_treeprofile.set>
SCIP> read /nfs/optimi/kombadon/IP/coral/d20200.mps.gz

read problem </nfs/optimi/kombadon/IP/coral/d20200.mps.gz>
============

original problem has 4000 variables (4000 bin, 0 int, 0 impl, 0 cont) and 1502 constraints
SCIP> display parameters

number of parameters = 2448
non-default parameter settings:
display/freq = 10000
limits/time = 7200
limits/nodes = 2100000000
limits/memory = 50000
lp/threads = 1
memory/savefac = 1
misc/referencevalue = 12292
presolving/maxrestarts = 0
estimates/profile/enabled = TRUE
estimates/profile/maxdepthfactor = 10
estimates/profile/freq = 0

SCIP> optimize

Activating tree profile data collection
presolving:
(round 1, fast)       819 del vars, 0 del conss, 0 add conss, 0 chg bounds, 0 chg sides, 0 chg coeffs, 0 upgd conss, 0 impls, 200 clqs
(round 2, exhaustive) 819 del vars, 15 del conss, 0 add conss, 0 chg bounds, 15 chg sides, 0 chg coeffs, 0 upgd conss, 0 impls, 200 clqs
(round 3, exhaustive) 819 del vars, 15 del conss, 0 add conss, 0 chg bounds, 15 chg sides, 0 chg coeffs, 1487 upgd conss, 0 impls, 200 clqs
   (0.4s) probing: 51/3181 (1.6%) - 0 fixings, 0 aggregations, 0 implications, 0 bound changes
   (0.4s) probing aborted: 50/50 successive totally useless probings
presolving (4 rounds: 4 fast, 3 medium, 3 exhaustive):
 819 deleted vars, 15 deleted constraints, 0 added constraints, 0 tightened bounds, 0 added holes, 15 changed sides, 0 changed coefficients
 0 implications, 200 cliques
presolved problem has 3181 variables (3181 bin, 0 int, 0 impl, 0 cont) and 1487 constraints
   1287 constraints of type <knapsack>
    200 constraints of type <setppc>
transformed objective value is always integral (scale: 1)
Presolving Time: 0.43

 time | node  | left  |LP iter|LP it/n| mem |mdpt |frac |vars |cons |cols |rows |cuts |confs|strbr|  dualbound   | primalbound  |  gap   
k 0.6s|     1 |     0 |   121 |     - | 100M|   0 |   - |3181 |1488 |3181 |1487 |   0 |   0 |   0 | 0.000000e+00 | 1.877900e+04 |    Inf 
V 0.7s|     1 |     0 |   121 |     - | 101M|   0 |   - |3181 |1518 |3181 |1487 |   0 |  30 |   0 | 0.000000e+00 | 1.404900e+04 |    Inf 
  1.0s|     1 |     0 |  2262 |     - | 101M|   0 | 315 |3181 |1518 |3181 |1487 |   0 |  30 |   0 | 1.222963e+04 | 1.404900e+04 |  14.88%
E10.4s|     1 |     0 | 14931 |     - | 103M|   0 | 315 |3181 |1518 |3181 |1487 |   0 |  30 |   0 | 1.222963e+04 | 1.233300e+04 |   0.85%
 10.5s|     1 |     0 | 14931 |     - | 103M|   0 | 315 |3181 |1518 |3181 |1487 |   0 |  30 |   0 | 1.222963e+04 | 1.233300e+04 |   0.85%
SCIP nodes: 1 Estimation: -1
 12.1s|     1 |     2 | 14931 |     - | 103M|   0 | 315 |3181 |1518 |3181 |1487 |   0 |  30 |  22 | 1.222978e+04 | 1.233300e+04 |   0.84%
   (12.1s) symmetry computation started: requiring (bin +, int -, cont -), (fixed: bin -, int +, cont -)
   (12.1s) no symmetry present
SCIP nodes: 2 Estimation: -1
SCIP nodes: 4 Estimation: -1
SCIP nodes: 8 Estimation: -1
SCIP nodes: 16 Estimation: -1
SCIP nodes: 32 Estimation: -1
SCIP nodes: 64 Estimation: -1
SCIP nodes: 128 Estimation: -1
SCIP nodes: 256 Estimation: -1
SCIP nodes: 512 Estimation: 33244.6
SCIP nodes: 1024 Estimation: 65607.9
SCIP nodes: 2048 Estimation: 1198.93
SCIP nodes: 4096 Estimation: 2452.72
SCIP nodes: 8192 Estimation: 5107.89
  451s| 10000 | 10001 |  1881k| 187.9 | 174M|  91 | 237 |3181 |1968 |3181 |1487 |1396 |4493 | 878 | 1.223087e+04 | 1.233300e+04 |   0.83%
SCIP nodes: 16384 Estimation: 11268.2
  853s| 20000 | 20001 |  3919k| 195.9 | 202M|  91 | 230 |3181 |1992 |3181 |1488 |1945 |8658 | 963 | 1.223104e+04 | 1.233300e+04 |   0.83%
 1235s| 30000 | 30001 |  5861k| 195.3 | 230M|  91 | 223 |3181 |1997 |3181 |1488 |2167 |  12k|1025 | 1.223113e+04 | 1.233300e+04 |   0.83%
SCIP nodes: 32768 Estimation: 49322.5
 1606s| 40000 | 40001 |  7803k| 195.0 | 252M|  91 | 222 |3181 |2002 |3181 |1489 |2264 |  16k|1084 | 1.223119e+04 | 1.233300e+04 |   0.83%
 1975s| 50000 | 50001 |  9721k| 194.4 | 276M|  91 | 203 |3181 |1991 |3181 |1487 |2499 |  20k|1134 | 1.223123e+04 | 1.233300e+04 |   0.83%
 2350s| 60000 | 60001 | 11665k| 194.4 | 303M|  91 | 250 |3181 |1994 |3181 |1489 |2667 |  24k|1182 | 1.223127e+04 | 1.233300e+04 |   0.83%
SCIP nodes: 65536 Estimation: 145431
 2713s| 70000 | 70001 | 13548k| 193.5 | 324M|  91 | 203 |3181 |1980 |3181 |1489 |2850 |  28k|1206 | 1.223130e+04 | 1.233300e+04 |   0.83%
 3069s| 80000 | 80001 | 15416k| 192.7 | 347M|  91 | 183 |3181 |2015 |3181 |1487 |2988 |  32k|1243 | 1.223133e+04 | 1.233300e+04 |   0.83%
 3423s| 90000 | 90001 | 17265k| 191.8 | 369M|  91 | 199 |3181 |1943 |3181 |1490 |3146 |  36k|1267 | 1.223135e+04 | 1.233300e+04 |   0.83%
 time | node  | left  |LP iter|LP it/n| mem |mdpt |frac |vars |cons |cols |rows |cuts |confs|strbr|  dualbound   | primalbound  |  gap   
 3773s|100000 |100001 | 19115k| 191.1 | 389M|  91 | 234 |3181 |2001 |3181 |1488 |3213 |  40k|1283 | 1.223137e+04 | 1.233300e+04 |   0.83%
 4123s|110000 |110001 | 20982k| 190.7 | 410M|  91 | 164 |3181 |2027 |3181 |1487 |3293 |  44k|1308 | 1.223139e+04 | 1.233300e+04 |   0.83%
 4457s|120000 |120001 | 22784k| 189.9 | 439M|  91 | 200 |3181 |1918 |3181 |1487 |3426 |  48k|1362 | 1.223140e+04 | 1.233300e+04 |   0.83%
 4804s|130000 |130001 | 24662k| 189.7 | 463M|  91 | 208 |3181 |1923 |3181 |1488 |3515 |  52k|1376 | 1.223142e+04 | 1.233300e+04 |   0.83%
SCIP nodes: 131072 Estimation: 215379
 5152s|140000 |140001 | 26535k| 189.5 | 485M|  91 | 227 |3181 |1931 |3181 |1489 |3636 |  56k|1392 | 1.223143e+04 | 1.233300e+04 |   0.83%
 5511s|150000 |150001 | 28431k| 189.5 | 506M|  91 | 195 |3181 |1963 |3181 |1491 |3822 |  60k|1412 | 1.223145e+04 | 1.233300e+04 |   0.83%
 5857s|160000 |160001 | 30267k| 189.2 | 525M|  91 | 137 |3181 |2028 |3181 |1487 |4002 |  64k|1425 | 1.223146e+04 | 1.233300e+04 |   0.83%
 6214s|170000 |170001 | 32126k| 189.0 | 551M|  91 | 205 |3181 |1920 |3181 |1490 |4126 |  68k|1444 | 1.223147e+04 | 1.233300e+04 |   0.83%
 6555s|180000 |180001 | 33960k| 188.7 | 571M|  91 | 216 |3181 |1945 |3181 |1489 |4205 |  72k|1463 | 1.223148e+04 | 1.233300e+04 |   0.83%
 6903s|190000 |190001 | 35804k| 188.4 | 591M|  91 | 182 |3181 |1997 |3181 |1492 |4315 |  76k|1473 | 1.223149e+04 | 1.233300e+04 |   0.83%

SCIP Status        : solving was interrupted [time limit reached]
Solving Time (sec) : 7200.00
Solving Nodes      : 198797
Primal Bound       : +1.23330000000000e+04 (38 solutions)
Dual Bound         : +1.22315023359344e+04
Gap                : 0.83 %

SCIP> display statistics

SCIP Status        : solving was interrupted [time limit reached]
Total Time         :    7200.06
  solving          :    7200.00
  presolving       :       0.43 (included in solving)
  reading          :       0.06
  copying          :       1.32 (49 #copies) (minimal 0.02, maximal 0.03, average 0.03)
Original Problem   :
  Problem name     : d20200.lp
  Variables        : 4000 (4000 binary, 0 integer, 0 implicit integer, 0 continuous)
  Constraints      : 1502 initial, 1502 maximal
  Objective        : minimize, 4000 non-zeros (abs.min = 1, abs.max = 120)
Presolved Problem  :
  Problem name     : t_d20200.lp
  Variables        : 3181 (3181 binary, 0 integer, 0 implicit integer, 0 continuous)
  Constraints      : 1487 initial, 2508 maximal
  Objective        : minimize, 3181 non-zeros (abs.min = 1, abs.max = 118)
Presolvers         :   ExecTime  SetupTime  Calls  FixedVars   AggrVars   ChgTypes  ChgBounds   AddHoles    DelCons    AddCons   ChgSides   ChgCoefs
  boundshift       :       0.00       0.00      0          0          0          0          0          0          0          0          0          0
  convertinttobin  :       0.00       0.00      0          0          0          0          0          0          0          0          0          0
  domcol           :       0.02       0.00      1          0          0          0          0          0          0          0          0          0
  dualagg          :       0.00       0.00      0          0          0          0          0          0          0          0          0          0
  dualcomp         :       0.00       0.00      0          0          0          0          0          0          0          0          0          0
  dualinfer        :       0.00       0.00      0          0          0          0          0          0          0          0          0          0
  gateextraction   :       0.00       0.00      0          0          0          0          0          0          0          0          0          0
  implics          :       0.00       0.00      3          0          0          0          0          0          0          0          0          0
  inttobinary      :       0.00       0.00      0          0          0          0          0          0          0          0          0          0
  qpkktref         :       0.00       0.00      0          0          0          0          0          0          0          0          0          0
  redvub           :       0.00       0.00      0          0          0          0          0          0          0          0          0          0
  sparsify         :       0.02       0.00      1          0          0          0          0          0          0          0          0          0
  stuffing         :       0.00       0.00      0          0          0          0          0          0          0          0          0          0
  symbreak         :       0.00       0.00      0          0          0          0          0          0          0          0          0          0
  symmetry         :       0.00       0.00      0          0          0          0          0          0          0          0          0          0
  trivial          :       0.00       0.00      4        819          0          0          0          0          0          0          0          0
  tworowbnd        :       0.00       0.00      0          0          0          0          0          0          0          0          0          0
  dualfix          :       0.00       0.00      4          0          0          0          0          0          0          0          0          0
  genvbounds       :       0.00       0.00      0          0          0          0          0          0          0          0          0          0
  orbitalfixing    :       0.00       0.00      0          0          0          0          0          0          0          0          0          0
  probing          :       0.02       0.00      1          0          0          0          0          0          0          0          0          0
  pseudoobj        :       0.00       0.00      0          0          0          0          0          0          0          0          0          0
  vbounds          :       0.00       0.00      1          0          0          0          0          0          0          0          0          0
  knapsack         :       0.09       0.00      3          0          0          0          0          0          0          0          0          0
  setppc           :       0.00       0.00      3          0          0          0          0          0          0          0          0          0
  linear           :       0.26       0.02      5          0          0          0          0          0         15          0         15          0
  logicor          :       0.00       0.00      0          0          0          0          0          0          0          0          0          0
  benders          :       0.00       0.00      0          0          0          0          0          0          0          0          0          0
  components       :       0.01       0.00      1          0          0          0          0          0          0          0          0          0
  root node        :          -          -      -          0          -          -          0          -          -          -          -          -
Constraints        :     Number  MaxNumber  #Separate #Propagate    #EnfoLP    #EnfoRelax  #EnfoPS    #Check   #ResProp    Cutoffs    DomReds       Cuts    Applied      Conss   Children
  benderslp        :          0          0          0          0     198796          0          0      20284          0          0          0          0          0          0          0
  integral         :          0          0          0          0     198796          0          0      20284          0          0          0          0          0          0     397592
  knapsack         :       1287       1287          2    3836638          0          0          0      20279     766593         81       9248          0          0          0          0
  setppc           :        200        200          2    3836760          0          0          0         40    1144616         27    2620693          0          0          0          0
  logicor          :          0+      1021          2     305590          0          0          0          0        169       1267          0          0          0          0          0
  benders          :          0          0          0          0          0          0          0         39          0          0          0          0          0          0          0
  countsols        :          0          0          0          0          0          0          0         39          0          0          0          0          0          0          0
  components       :          0          0          0          0          0          0          0          0          0          0          0          0          0          0          0
Constraint Timings :  TotalTime  SetupTime   Separate  Propagate     EnfoLP     EnfoPS     EnfoRelax   Check    ResProp    SB-Prop
  benderslp        :       0.12       0.00       0.00       0.00       0.10       0.00       0.00       0.02       0.00       0.00
  integral         :      64.76       0.00       0.00       0.00      64.73       0.00       0.00       0.03       0.00       0.00
  knapsack         :      84.42       0.00       0.06      82.98       0.00       0.00       0.00       0.32       0.94       0.12
  setppc           :      78.36       0.00       0.00      77.53       0.00       0.00       0.00       0.00       0.72       0.11
  logicor          :       4.09       0.00       0.00       4.09       0.00       0.00       0.00       0.00       0.00       0.00
  benders          :       0.00       0.00       0.00       0.00       0.00       0.00       0.00       0.00       0.00       0.00
  countsols        :       0.00       0.00       0.00       0.00       0.00       0.00       0.00       0.00       0.00       0.00
  components       :       1.49       0.00       0.00       1.49       0.00       0.00       0.00       0.00       0.00       0.00
Propagators        : #Propagate   #ResProp    Cutoffs    DomReds
  dualfix          :          3          0          0          0
  genvbounds       :          0          0          0          0
  nlobbt           :          0          0          0          0
  obbt             :          0          0          0          0
  orbitalfixing    :          1          0          0          0
  probing          :          0          0          0          0
  pseudoobj        :     576284          0          0          0
  redcost          :     388256          0          0          0
  rootredcost      :          1          0          0          0
  vbounds          :    4035540          0          0          0
Propagator Timings :  TotalTime  SetupTime   Presolve  Propagate    ResProp    SB-Prop
  dualfix          :       0.00       0.00       0.00       0.00       0.00       0.00
  genvbounds       :       1.85       0.00       0.00       1.85       0.00       0.00
  nlobbt           :       0.00       0.00       0.00       0.00       0.00       0.00
  obbt             :       0.00       0.00       0.00       0.00       0.00       0.00
  orbitalfixing    :       2.02       0.00       0.00       2.02       0.00       0.00
  probing          :       0.02       0.00       0.02       0.00       0.00       0.00
  pseudoobj        :       2.07       0.00       0.00       2.07       0.00       0.00
  redcost          :     472.70       0.00       0.00     472.70       0.00       0.00
  rootredcost      :       1.92       0.00       0.00       1.92       0.00       0.00
  vbounds          :       2.33       0.00       0.00       2.32       0.00       0.01
Conflict Analysis  :       Time      Calls    Success    DomReds  Conflicts   Literals    Reconvs ReconvLits   Dualrays   Nonzeros   LP Iters   (pool size: [10000,10000])
  propagation      :       0.09       1364       1359          -       4298      152.4          6       52.7          -          -          -
  infeasible LP    :       0.00          0          0          -          0        0.0          0        0.0          0        0.0          0
  bound exceed. LP :      77.73      15180      14642          -     360882      338.0          2       44.5          0        0.0     288479
  strong branching :       0.00          0          0          -          0        0.0          0        0.0          -          -          0
  pseudo solution  :       0.00          0          0          -          0        0.0          0        0.0          -          -          -
  applied globally :       1.45          -          -          0      80293      154.1          -          -          0          -          -
  applied locally  :          -          -          -          0          0        0.0          -          -          0          -          -
Separators         :   ExecTime  SetupTime      Calls    Cutoffs    DomReds       Cuts    Applied      Conss
  cut pool         :       0.74                 24181          -          -      13634          -          -    (maximal pool size: 1059)
  aggregation      :       2.00       0.00       1537          0          0          0          0          0
  cgmip            :       0.00       0.00          0          0          0          0          0          0
  clique           :       0.00       0.00          2          0          0          0          0          0
  closecuts        :       0.00       0.00          0          0          0          0          0          0
  cmir             :       0.00       0.00          0          0          0          0        654          0
  convexproj       :       0.00       0.00          0          0          0          0          0          0
  disjunctive      :       0.00       0.00          0          0          0          0          0          0
  eccuts           :       0.00       0.00          0          0          0          0          0          0
  flowcover        :       0.00       0.00          0          0          0          0         27          0
  gauge            :       0.00       0.00          0          0          0          0          0          0
  gomory           :      33.84       0.00       1537          0          0          0        291          0
  impliedbounds    :       0.05       0.00       1537          0          0          0          0          0
  intobj           :       0.00       0.00          0          0          0          0          0          0
  mcf              :       0.00       0.00          1          0          0          0          0          0
  oddcycle         :       0.00       0.00          0          0          0          0          0          0
  rapidlearning    :       0.00       0.00          0          0          0          0          0          0
  strongcg         :       0.05       0.00          2          0          0          0          0          0
  zerohalf         :       9.63       0.00       1537          0          0          0       3414          0
Pricers            :   ExecTime  SetupTime      Calls       Vars
  problem variables:       0.00          -          0          0
Branching Rules    :   ExecTime  SetupTime   BranchLP  BranchExt   BranchPS    Cutoffs    DomReds       Cuts      Conss   Children
  allfullstrong    :       0.00       0.00          0          0          0          0          0          0          0          0
  cloud            :       0.00       0.00          0          0          0          0          0          0          0          0
  distribution     :       0.00       0.00          0          0          0          0          0          0          0          0
  fullstrong       :       0.00       0.00          0          0          0          0          0          0          0          0
  inference        :       0.00       0.00          0          0          0          0          0          0          0          0
  leastinf         :       0.00       0.00          0          0          0          0          0          0          0          0
  lookahead        :       0.00       0.00          0          0          0          0          0          0          0          0
  mostinf          :       0.00       0.00          0          0          0          0          0          0          0          0
  multaggr         :       0.00       0.00          0          0          0          0          0          0          0          0
  nodereopt        :       0.00       0.00          0          0          0          0          0          0          0          0
  pscost           :       0.00       0.00          0          0          0          0          0          0          0          0
  random           :       0.00       0.00          0          0          0          0          0          0          0          0
  relpscost        :      64.21       0.00     198796          0          0          0          0          0          0     397592
Primal Heuristics  :   ExecTime  SetupTime      Calls      Found       Best
  LP solutions     :       0.00          -          -          0          0
  relax solutions  :       0.00          -          -          0          0
  pseudo solutions :       0.00          -          -          0          0
  strong branching :       0.01          -          -          0          0
  actconsdiving    :       0.00       0.00          0          0          0
  alns             :      23.69       0.00         13          0          0
  bound            :       0.00       0.00          0          0          0
  clique           :       0.08       0.00          1          0          0
  coefdiving       :     217.60       0.00       4798          0          0
  completesol      :       0.00       0.00          0          0          0
  conflictdiving   :       0.00       0.00          0          0          0
  crossover        :      25.04       0.00         10         10          0
  dins             :       0.00       0.00          0          0          0
  distributiondivin:     183.40       0.00        873          0          0
  dualval          :       0.00       0.00          0          0          0
  farkasdiving     :       1.64       0.00          1          0          0
  feaspump         :       2.74       0.00          5          1          0
  fixandinfer      :       0.00       0.00          0          0          0
  fracdiving       :     194.28       0.00       2351          0          0
  gins             :       0.16       0.00          0          0          0
  guideddiving     :     191.43       0.00       2306          0          0
  indicator        :       0.09       0.00          0          0          0
  intdiving        :       0.00       0.00          0          0          0
  intshifting      :       0.03       0.00          0          0          0
  linesearchdiving :     198.56       0.00       2261          0          0
  localbranching   :       0.00       0.00          0          0          0
  locks            :       0.07       0.00          1          1          1
  lpface           :       0.05       0.00          0          0          0
  mpec             :       0.00       0.00          0          0          0
  multistart       :       0.00       0.00          0          0          0
  mutation         :       0.00       0.00          0          0          0
  nlpdiving        :       0.01       0.00          0          0          0
  objpscostdiving  :     204.20       0.00         30          0          0
  octane           :       0.00       0.00          0          0          0
  ofins            :       0.11       0.00          0          0          0
  oneopt           :       0.36       0.00          2          0          0
  proximity        :       0.00       0.00          0          0          0
  pscostdiving     :     163.24       0.00        653          0          0
  randrounding     :       0.98       0.00      20238          0          0
  rens             :       6.57       0.00          1          1          1
  reoptsols        :       0.00       0.00          0          0          0
  repair           :       0.00       0.00          0          0          0
  rins             :      11.51       0.00         25         19          0
  rootsoldiving    :      56.48       0.00         67          5          0
  rounding         :       3.45       0.00       6319          0          0
  shiftandpropagate:       0.00       0.00          0          0          0
  shifting         :       4.01       0.00       2002          0          0
  simplerounding   :       0.11       0.00          0          0          0
  subnlp           :       0.10       0.00          0          0          0
  trivial          :       0.00       0.00          2          0          0
  trivialnegation  :       0.00       0.00          0          0          0
  trysol           :       0.22       0.00          0          0          0
  twoopt           :       0.00       0.00          0          0          0
  undercover       :       0.00       0.00          0          0          0
  vbounds          :       0.08       0.00          1          1          1
  veclendiving     :     206.12       0.00       1439          0          0
  zeroobj          :       0.00       0.00          0          0          0
  zirounding       :       0.19       0.00       1000          0          0
  other solutions  :          -          -          -          0          -
Diving Statistics  :      Calls      Nodes   LP Iters Backtracks  Conflicts   MinDepth   MaxDepth   AvgDepth  RoundSols  NLeafSols  MinSolDpt  MaxSolDpt  AvgSolDpt
  actconsdiving    :          0          -          -          -          -          -          -          -          -          -          -          -          -
  coefdiving       :       4798     991457    1353592          0      14260        142        297      232.8          0          -          -          -          -
  conflictdiving   :          0          -          -          -          -          -          -          -          -          -          -          -          -
  distributiondivin:        873     147098    1366607        972      49453        107        290      193.8          0          -          -          -          -
  farkasdiving     :          1        553       7446          0          0        554        554      554.0          0          -          -          -          -
  fracdiving       :       2351     395337    1356936        341      51555        118        280      194.4          0          -          -          -          -
  guideddiving     :       2306     376719    1357146        354      44028        129        277      189.7          0          -          -          -          -
  linesearchdiving :       2261     397793    1357226        603      56393        142        283      202.2          0          -          -          -          -
  pscostdiving     :        653     280871    1373108         92       7711        313        654      456.2          0          -          -          -          -
  veclendiving     :       1439     206752    1360982        132     141651        137        198      170.1          0          -          -          -          -
Neighborhoods      :      Calls  SetupTime  SolveTime SolveNodes       Sols       Best       Exp3  EpsGreedy        UCB TgtFixRate  Opt  Inf Node Stal  Sol  Usr Othr Actv
  rens             :          2       0.08       5.07        112          0          0    0.00000   -1.00000    0.49581      0.900    0    0    0    2    0    0    0    1
  rins             :          2       0.09       4.83        106          0          0    0.00000   -1.00000    0.49581      0.900    0    0    0    2    0    0    0    1
  mutation         :          2       0.07       0.52         51          0          0    0.00000   -1.00000    0.47039      0.850    0    1    0    1    0    0    0    1
  localbranching   :          2       0.08       5.26        109          0          0    0.00000   -1.00000    0.49581      0.900    0    0    0    2    0    0    0    1
  crossover        :          2       0.09       2.61        103          0          0    0.00000   -1.00000    0.49581      0.900    0    0    0    2    0    0    0    1
  proximity        :          1       0.03       0.79         88          0          0    0.00000   -1.00000    0.47673      0.900    0    0    0    1    0    0    0    1
  zeroobjective    :          1       0.03       0.41         70          0          0    0.00000   -1.00000    0.49478      0.900    0    0    0    1    0    0    0    1
  dins             :          1       0.03       3.56         50          0          0    0.00000   -1.00000    0.50792      0.900    0    0    0    1    0    0    0    1
LP                 :       Time      Calls Iterations  Iter/call   Iter/sec  Time-0-It Calls-0-It    ItLimit
  primal LP        :     719.72       8328          0       0.00       0.00     719.70       8328
  dual LP          :    4043.82     202208   26997312     133.51    6676.19       0.02          1
  lex dual LP      :       0.00          0          0       0.00          -
  barrier LP       :       0.00          0          0       0.00          -       0.00          0
  resolve instable :       0.45         16        605      37.81    1344.44
  diving/probing LP:    1203.07      96397   10434846     108.25    8673.52
  strong branching :      54.29       1482     376794     254.25    6940.39          -          -        326
    (at root node) :          -         22       8430     383.18          -
  conflict analysis:      48.51      29165     288479       9.89    5946.79
B&B Tree           :
  number of runs   :          1
  nodes            :     198797 (198796 internal, 1 leaves)
  feasible leaves  :          0
  infeas. leaves   :          0
  objective leaves :          0
  nodes (total)    :     198797 (198796 internal, 1 leaves)
  nodes left       :     198797
  max depth        :         91
  max depth (total):         91
  backtracks       :      20383 (10.3%)
  early backtracks :      20383 (100.0%)
  nodes exc. ref.  :          0 (0.0%)
  delayed cutoffs  :          0
  repropagations   :          0 (0 domain reductions, 0 cutoffs)
  avg switch length:       4.75
  switching time   :     740.83
Root Node          :
  First LP value   : +1.22296257880439e+04
  First LP Iters   :       2141 (7929.63 Iter/sec)
  First LP Time    :       0.27
  Final Dual Bound : +1.22297809269272e+04
  Final Root Iters :       2141
  Root LP Estimate : +1.23620888208804e+04
Solution           :
  Solutions found  :         38 (3 improvements)
  First Solution   : +1.87790000000000e+04   (in run 1, after 1 nodes, 0.61 seconds, depth 2884, found by <locks>)
  Gap First Sol.   :   infinite
  Gap Last Sol.    :       0.85 %
  Primal Bound     : +1.23330000000000e+04   (in run 1, after 1 nodes, 10.38 seconds, depth 0, found by <rens>)
  Dual Bound       : +1.22315023359344e+04
  Gap              :       0.83 %
  Avg. Gap         :       0.85 % (6147.68 primal-dual integral)
  Tree Data        : 397593 nodes (198796 visited, 198796 inner, 0 leaves, 198797 open), progress: 0.0000
Tree Estimation    :       estim       value       trend  resolution      smooth
  wbe              :          -1           -           -           -           -
  tree profile     :      318824           -           -           -           -
  gap              :          -1     0.00000 999999999999999967336168804116691273849533185806555472917961779471295845921727862608739868455469056.00000           1 999999999999999967336168804116691273849533185806555472917961779471295845921727862608739868455469056
  progress         :          -1     0.00000 999999999999999967336168804116691273849533185806555472917961779471295845921727862608739868455469056.00000           1 999999999999999967336168804116691273849533185806555472917961779471295845921727862608739868455469056
  leaf-frequency   :          -1    -0.50000 999999999999999967336168804116691273849533185806555472917961779471295845921727862608739868455469056.00000           1 999999999999999967336168804116691273849533185806555472917961779471295845921727862608739868455469056
  ssg              :          -1     1.00000 999999999999999967336168804116691273849533185806555472917961779471295845921727862608739868455469056.00000           1 999999999999999967336168804116691273849533185806555472917961779471295845921727862608739868455469056
  open-nodes       :          -1     0.00000 999999999999999967336168804116691273849533185806555472917961779471295845921727862608739868455469056.00000           1 999999999999999967336168804116691273849533185806555472917961779471295845921727862608739868455469056

@04 1566505874
-----------------------------
Do 22. Aug 22:31:14 CEST 2019
-----------------------------

=ready=
